1,1
2,1
3,1
4,1
5,1
6,1
7,1
8,1
9,1
10,1
11,1
12,1
13,1
14,1
15,0
16,0
17,0
18,1
19,1
20,1
21,1
22,1
23,0
24,0
25,0
26,0
27,1
28,0
29,0
30,0
31,0
32,1
33,1
34,1
35,1
36,1
37,1
38,1
39,0
40,1
41,0
42,1
43,0
44,1
45,1
46,1
47,0
48,0
49,0
50,1
51,0
52,0
53,1
54,1
55,1
56,1
57,1
58,1
59,0
60,1
61,0
62,0
63,0
64,0
65,0
66,0
67,1
68,0
69,1
70,1
71,0
72,0
73,0
74,0
75,1
76,1
77,1
78,1
79,1
80,1
81,1
82,1
83,1
84,1
85,1
86,1
87,1
88,1
89,1
90,1
91,1
92,1
93,0
94,1
95,1
96,1
97,1
98,0
99,1
100,1
101,0
102,1
103,1
104,1
105,1
106,0
107,1
108,1
109,0
110,1
111,1
112,0
113,0
114,0
115,1
116,1
117,0
118,1
119,0
120,0
121,0
122,1
123,1
124,1
125,1
126,1
127,1
128,1
129,0
130,1
131,1
132,0
133,0
134,0
135,0
136,0
137,1
138,1
139,1
140,0
141,1
142,1
143,0
144,0
145,0
146,0
147,0
148,0
149,0
150,0
151,0
152,0
153,0
154,0
155,0
156,0
157,0
158,0
159,0
160,0
161,0
162,0
163,0
164,0
165,0
166,0
167,1
168,1
169,1
170,0
171,0
172,0
173,0
174,1
175,1
176,1
177,0
178,1
179,0
180,0
181,0
182,0
183,1
184,1
185,1
186,1
187,1
188,1
189,1
190,0
191,1
192,1
193,1
194,1
195,1
196,1
197,1
198,1
199,1
200,1
201,1
202,1
203,1
204,1
205,0
206,0
207,0
208,1
209,1
210,1
211,1
212,1
213,1
214,1
215,1
216,1
217,1
218,1
219,1
220,0
221,0
222,0
223,0
224,0
225,0
226,0
227,1
228,0
229,1
230,0
231,0
232,0
233,0
234,0
235,1
236,0
237,1
238,0
239,0
240,0
241,0
242,0
243,0
244,0
245,0
246,0
247,0
248,1
249,0
250,1
251,1
252,0
253,0
254,1
255,1
256,1
257,0
258,1
259,1
260,1
261,0
262,0
263,0
264,0
265,0
266,0
267,0
268,0
269,0
270,1
271,0
272,0
273,0
274,0
275,1
276,1
277,1
278,1
279,0
280,0
281,0
282,0
283,0
284,1
285,0
286,1
287,1
288,1
289,1
290,1
291,1
292,0
293,0
294,0
295,0
296,1
297,1
298,1
299,0
300,1
301,0
302,0
303,1
304,0
305,1
306,1
307,1
308,1
309,1
310,1
311,1
312,0
313,0
314,0
315,0
316,0
317,1
318,1
319,0
320,0
321,0
322,0
323,0
324,1
325,0
326,0
327,0
328,1
329,0
330,0
331,0
332,0
333,0
334,1
335,1
336,1
337,1
338,1
339,0
340,1
341,1
342,1
343,1
344,1
345,0
346,0
347,0
348,0
349,1
350,1
351,1
352,0
353,0
354,0
355,0
356,0
357,0
358,0
359,1
360,1
361,1
362,1
363,0
364,0
365,0
366,0
367,0
368,0
369,0
370,1
371,0
372,1
373,1
374,1
375,1
376,1
377,1
378,1
379,1
380,1
381,1
382,1
383,1
384,1
385,1
386,1
387,1
388,0
389,0
390,0
391,0
392,0
393,1
394,0
395,0
396,1
397,0
398,1
399,1
400,1
401,0
402,1
403,0
404,0
405,1
406,0
407,0
408,0
409,1
410,1
411,1
412,0
413,0
414,1
415,1
416,1
417,1
418,1
419,1
420,0
421,0
422,1
423,1
424,0
425,1
426,1
427,1
428,1
429,0
430,0
431,1
432,1
433,1
434,0
435,0
436,0
437,0
438,0
439,1
440,0
441,0
442,0
443,1
444,0
445,1
446,0
447,0
448,0
449,1
450,1
451,1
452,1
453,1
454,1
455,1
456,1
457,1
458,1
459,0
460,1
461,1
462,1
463,1
464,0
465,1
466,0
467,0
468,0
469,1
470,0
471,0
472,0
473,0
474,0
475,0
476,0
477,0
478,0
479,0
480,0
481,0
482,0
483,0
484,0
485,0
486,0
487,0
488,0
489,0
490,0
491,0
492,0
493,1
494,0
495,0
496,0
497,0
498,0
499,0
500,0
501,0
502,0
503,0
504,0
505,0
506,0
507,0
508,1
509,1
510,1
511,1
512,0
513,0
514,0
515,1
516,1
517,1
518,1
519,1
520,1
521,1
522,1
523,1
524,1
525,0
526,1
527,1
528,1
529,0
530,0
531,0
532,1
533,0
534,0
535,0
536,0
537,0
538,0
539,0
540,0
541,0
542,0
543,1
544,0
545,0
546,1
547,0
548,0
549,0
550,0
551,0
552,0
553,0
554,0
555,0
556,0
557,0
558,0
559,0
560,0
561,0
562,0
563,0
564,0
565,0
566,0
567,1
568,0
569,0
570,0
571,0
572,0
573,0
574,0
575,0
576,0
577,1
578,1
579,0
580,0
581,0
582,0
583,0
584,0
585,0
586,0
587,0
588,0
589,1
590,1
591,0
592,1
593,0
594,0
595,1
596,1
597,0
598,0
599,1
600,0
601,0
602,0
603,0
604,1
605,1
606,1
607,0
608,0
609,0
610,0
611,1
612,0
613,0
614,1
615,1
616,0
617,0
618,0
619,0
620,0
621,1
622,0
623,1
624,0
625,1
626,1
627,1
628,0
629,0
630,1
631,1
632,1
633,1
634,1
635,1
636,1
637,1
638,0
639,1
640,0
641,0
642,0
643,1
644,0
645,0
646,0
647,0
648,0
649,0
650,1
651,0
652,0
653,0
654,0
655,0
656,1
657,0
658,0
659,1
660,1
661,1
662,1
663,1
664,1
665,1
666,0
667,0
668,0
669,0
670,0
671,1
672,1
673,0
674,0
675,0
676,1
677,1
678,1
679,1
680,1
681,1
682,1
683,1
684,0
685,1
686,1
687,1
688,1
689,0
690,0
691,0
692,0
693,0
694,0
695,0
696,0
697,0
698,0
699,0
700,0
701,0
702,0
703,0
704,0
705,0
706,0
707,0
708,0
709,0
710,1
711,0
712,0
713,0
714,0
715,0
716,0
717,0
718,1
719,1
720,0
721,0
722,0
723,0
724,0
725,0
726,0
727,0
728,0
729,0
730,0
731,0
732,0
733,0
734,1
735,0
736,0
737,0
738,0
739,0
740,0
741,0
742,0
743,1
744,0
745,1
746,0
747,1
748,1
749,1
750,1
751,1
752,1
753,1
754,1
755,1
756,1
757,1
758,1
759,1
760,1
761,1
762,1
763,1
764,1
765,1
766,1
767,1
768,1
769,1
770,1
771,1
772,1
773,1
774,1
775,1
776,1
777,1
778,1
779,1
780,1
781,1
782,1
783,1
784,1
785,1
786,1
787,1
788,1
789,1
790,1
791,1
792,1
793,1
794,1
795,0
796,0
797,0
798,0
799,0
800,0
801,0
802,0
803,0
804,0
805,0
806,0
807,0
808,0
809,0
810,0
811,0
812,0
813,0
814,0
815,0
816,0
817,0
818,0
819,0
820,0
821,1
822,1
823,1
824,0
825,1
826,0
827,0
828,0
829,0
830,0
831,0
832,1
833,0
834,1
835,0
836,0
837,0
838,0
839,0
840,1
841,1
842,1
843,1
844,1
845,1
846,1
847,1
848,1
849,1
850,1
851,1
852,1
853,0
854,0
855,1
856,1
857,0
858,0
859,0
860,0
861,0
862,1
863,0
864,1
865,1
866,1
867,1
868,1
869,1
870,1
871,1
872,1
873,1
874,1
875,1
876,1
877,0
878,0
879,1
880,0
881,0
882,0
883,1
884,1
885,1
886,1
887,1
888,0
889,0
890,0
891,1
892,1
893,1
894,1
895,1
896,1
897,1
898,0
899,1
900,1
901,1
902,0
903,0
904,0
905,0
906,0
907,1
908,1
909,1
910,1
911,1
912,0
913,1
914,1
915,0
916,0
917,1
918,0
919,1
920,1
921,1
922,0
923,1
924,0
925,0
926,0
927,0
928,0
929,1
930,1
931,0
932,0
933,0
934,1
935,1
936,1
937,1
938,0
939,0
940,1
941,0
942,0
943,0
944,1
945,0
946,0
947,0
948,0
949,0
950,0
951,0
952,0
953,0
954,0
955,0
956,0
957,0
958,0
959,1
960,0
961,0
962,1
963,0
964,0
965,1
966,1
967,1
968,0
969,0
970,0
971,0
972,0
973,0
974,0
975,1
976,1
977,1
978,1
979,0
980,0
981,1
982,1
983,1
984,1
985,1
986,1
987,1
988,1
989,1
990,0
991,0
992,1
993,0
994,0
995,1
996,1
997,0
998,0
999,1
1000,1
1001,0
1002,1
1003,1
1004,0
1005,1
1006,0
1007,1
1008,1
1009,0
1010,1
1011,1
1012,1
1013,1
1014,1
1015,1
1016,1
1017,0
1018,1
1019,1
1020,1
1021,1
1022,0
1023,1
1024,1
1025,1
1026,0
1027,1
1028,1
1029,1
1030,0
1031,0
1032,0
1033,0
1034,0
1035,1
1036,0
1037,0
1038,0
1039,0
1040,0
1041,0
1042,0
1043,0
1044,0
1045,0
1046,1
1047,1
1048,0
1049,0
1050,1
1051,0
1052,0
1053,1
1054,0
1055,0
1056,0
1057,0
1058,1
1059,0
1060,1
1061,1
1062,1
1063,1
1064,1
1065,0
1066,1
1067,1
1068,1
1069,1
1070,1
1071,1
1072,0
1073,1
1074,0
1075,0
1076,0
1077,1
1078,1
1079,1
1080,1
1081,1
1082,1
1083,0
1084,0
1085,0
1086,0
1087,1
1088,0
1089,0
1090,0
1091,0
1092,0
1093,0
1094,1
1095,0
1096,1
1097,0
1098,0
1099,0
1100,1
1101,1
1102,1
1103,0
1104,1
1105,1
1106,0
1107,1
1108,0
1109,0
1110,0
1111,0
1112,0
1113,1
1114,1
1115,0
1116,1
1117,0
1118,1
1119,0
1120,1
1121,0
1122,1
1123,1
1124,1
1125,1
1126,1
1127,1
1128,1
1129,1
1130,1
1131,1
1132,1
1133,0
1134,1
1135,1
1136,1
1137,1
1138,1
1139,1
1140,1
1141,1
1142,1
1143,1
1144,1
1145,1
1146,1
1147,1
1148,1
1149,1
1150,1
1151,1
1152,1
1153,1
1154,1
1155,1
1156,1
1157,1
1158,1
1159,1
1160,1
1161,1
1162,1
1163,0
1164,1
1165,0
1166,1
1167,0
1168,0
1169,0
1170,0
1171,1
1172,1
1173,1
1174,1
1175,1
1176,1
1177,1
1178,1
1179,1
1180,1
1181,1
1182,1
1183,1
1184,1
1185,1
1186,1
1187,1
1188,1
1189,1
1190,1
1191,0
1192,1
1193,0
1194,0
